ICHARG = 11
ENCUT = 520
EDIFF = 1E-5
ISMEAR = -5
ISYM = 0
LORBIT = 11
NEDOS = 1000
LWAVE = .False
