GaN                                     
   1.00000000000000     
     3.2474224097855320   -0.0000000102436205    0.0000000000000000
    -1.6237117227345432    2.8123503248029480   -0.0000000000000000
    -0.0000000000000000   -0.0000000000000000    5.2821840450164830
   Ga   N 
     2     2
Direct
  0.3333330000000032  0.6666669999999968  0.0027654669420955
  0.6666669999999968  0.3333330000000032  0.5027654669420956
  0.3333330000000032  0.6666669999999968  0.3798345330579010
  0.6666669999999968  0.3333330000000032  0.8798345330579009
 
  0.00000000E+00  0.00000000E+00  0.00000000E+00
  0.00000000E+00  0.00000000E+00  0.00000000E+00
  0.00000000E+00  0.00000000E+00  0.00000000E+00
  0.00000000E+00  0.00000000E+00  0.00000000E+00
