k-points of cdSi, from vasp wiki
 0
Monkhorst Pack
 11 11 11
 0  0  0
