Gamma-centered MP grid
0
Gamma
 4  4  4
 0  0  0
