system Si
1.000000
    2.71500000    2.71500000    0.00000000
    0.00000000    2.71500000    2.71500000
    2.71500000    0.00000000    2.71500000
Si
2
Direct
    0.000000000     0.000000000     0.000000000 
    0.250000000     0.250000000     0.250000000 
